
Log started (V11.0.0) Mon Apr 14 02:50:01 2008

Tried aggregator 1 time.
Reduced MIP has 530 rows, 15001 columns, and 30030 nonzeros.
Presolve time =    0.09 sec.
Clique table members: 500.
MIP emphasis: balance optimality and feasibility.
MIP search method: dynamic search.
Parallel mode: none, using 1 thread.
Root relaxation solution time =    0.44 sec.

        Nodes                                         Cuts/
   Node  Left     Objective  IInf  Best Integer     Best Node    ItCnt     Gap

*     0+    0                        25157.0000       65.6267      989   99.74%
*     0+    0                           71.0000       65.6267      989    7.57%
      0     0       66.0000    50       71.0000      Fract: 5      995    7.04%
*     0+    0                           70.0000       66.0000      995    5.71%

Repeating presolve.
Tried aggregator 1 time.
MIP Presolve eliminated 0 rows and 4660 columns.
Reduced MIP has 530 rows, 10341 columns, and 20710 nonzeros.
Tried aggregator 1 time.
Represolve time =    0.44 sec.
Clique table members: 828.
MIP emphasis: balance optimality and feasibility.
MIP search method: dynamic search.
Parallel mode: none, using 1 thread.
Root relaxation solution time =    0.25 sec.

        Nodes                                         Cuts/
   Node  Left     Objective  IInf  Best Integer     Best Node    ItCnt     Gap

      0     0       66.0000    55       70.0000       66.0000      926    5.71%
*     0+    0                           69.0000       66.0000      926    4.35%
*     0+    0                           68.0000       66.0000      926    2.94%
      0     2       66.0000    55       68.0000       66.0000      926    2.94%
    100    81       67.0000    43       68.0000       66.0000     9191    2.94%
    200   147       67.0000    40       68.0000       66.0000    19377    2.94%
    300   223       67.0000    46       68.0000       66.0000    29266    2.94%
    400   297       67.0000    41       68.0000       66.0000    39987    2.94%
    500   355       67.0000    45       68.0000       66.0000    54160    2.94%
    600   370       67.0000    49       68.0000       66.0000    61836    2.94%
    700   375       67.0000    40       68.0000       66.0000    70576    2.94%
    800   365       67.0000    41       68.0000       66.0000    81639    2.94%
    900   339       67.0000    45       68.0000       66.0000    94564    2.94%
   1000   324       67.0000    55       68.0000       66.0000   110104    2.94%
Elapsed time =  74.89 sec. (tree size =  3.27 MB, solutions = 5)
   1100   388       67.0000    48       68.0000       66.0000   123624    2.94%
   1200   473    infeasible             68.0000       66.0000   132402    2.94%
   1300   566       67.0000    63       68.0000       66.0000   137920    2.94%
   1400   655       67.0000    50       68.0000       66.0000   146066    2.94%
   1500   746       66.0000    67       68.0000       66.0000   152091    2.94%
   1600   837       67.0000    49       68.0000       66.0000   157913    2.94%
   1700   924       67.0000    55       68.0000       66.0000   167535    2.94%
   1800  1005       67.0000    57       68.0000       66.0000   176261    2.94%
   1900  1081       66.0000    80       68.0000       66.0000   187402    2.94%
   2000  1168       66.0599   192       68.0000       66.0000   194693    2.94%
Elapsed time = 136.80 sec. (tree size = 14.11 MB, solutions = 5)
   2100  1260       66.0000   107       68.0000       66.0000   200441    2.94%
   2200  1344       67.0000    37       68.0000       66.0000   207906    2.94%
   2300  1436       67.0000    41       68.0000       66.0000   216816    2.94%
   2400  1528       67.0000    50       68.0000       66.0000   225226    2.94%
   2500  1619       67.0000    48       68.0000       66.0000   233556    2.94%
   2600  1711    infeasible             68.0000       66.0000   243091    2.94%
   2700  1795       67.0000    50       68.0000       66.0000   250005    2.94%
   2800  1888       67.0000    47       68.0000       66.0000   256077    2.94%
   2900  1974       67.0000    57       68.0000       66.0000   263395    2.94%
   3000  2065       67.0000    77       68.0000       66.0000   271647    2.94%
Elapsed time = 193.95 sec. (tree size = 28.09 MB, solutions = 5)
   3100  2152       67.0000    60       68.0000       66.0000   279489    2.94%
   3200  2244       67.0000    43       68.0000       66.0000   288894    2.94%
   3300  2323       67.0000    56       68.0000       66.0000   298318    2.94%
   3400  2415       67.0000    70       68.0000       66.0000   306100    2.94%
   3500  2501       67.0000    45       68.0000       66.0000   314758    2.94%
   3600  2586       67.0000    47       68.0000       66.0000   326221    2.94%
   3700  2671    infeasible             68.0000       66.0000   335901    2.94%
   3800  2766       67.0000    69       68.0000       66.0000   342464    2.94%
   3900  2845       67.0000   109       68.0000       66.0000   354026    2.94%
   4000  2936       67.0000    53       68.0000       66.0000   360859    2.94%
Elapsed time = 256.20 sec. (tree size = 43.36 MB, solutions = 5)
   4100  3021       67.0000    65       68.0000       66.0000   372274    2.94%
   4200  3108       67.0000    86       68.0000       66.0000   380739    2.94%
*  4264+  301                           67.0000       66.0000   387064    1.49%
   4300   331       66.0000   126       67.0000       66.0000   391989    1.49%
   4400   401       66.0000   136       67.0000       66.0000   417545    1.49%
   4500   441    infeasible             67.0000       66.0000   470608    1.49%
   4600   349    infeasible             67.0000       66.0000   647273    1.49%
   4700   253    infeasible             67.0000       66.0000   812078    1.49%
   4800   217    infeasible             67.0000       66.0000   938051    1.49%
   4900   219    infeasible             67.0000       66.0000  1028971    1.49%
   5000   271       66.0000   159       67.0000       66.0000  1074082    1.49%
Elapsed time = 866.78 sec. (tree size =  5.52 MB, solutions = 6)
   5100   281    infeasible             67.0000       66.0000  1148869    1.49%
   5200   251       66.0000   185       67.0000       66.0000  1276253    1.49%
   5300   207    infeasible             67.0000       66.0000  1414710    1.49%
   5400   165    infeasible             67.0000       66.0000  1552896    1.49%
   5500    77    infeasible             67.0000       66.0000  1726095    1.49%
   5600    53    infeasible             67.0000       66.0000  1823730    1.49%
   5700    11    infeasible             67.0000       66.0000  1938986    1.49%

Cover cuts applied:  1422
Gomory fractional cuts applied:  5

Solution pool: 6 solutions saved.

MIP - Integer optimal solution:  Objective = 6.7000000000e+001
Solution time = 1646.92 sec.  Iterations = 1951666  Nodes = 5712


Incumbent solution
Variable Name           Solution Value
Cmax                         67.000000
X_1_1                         1.000000
X_2_27                        1.000000
X_3_25                        1.000000
X_4_8                         1.000000
X_5_25                        1.000000
X_6_13                        1.000000
X_7_3                         1.000000
X_8_17                        1.000000
X_9_11                        1.000000
X_10_26                       1.000000
X_11_20                       1.000000
X_12_30                       1.000000
X_13_22                       1.000000
X_14_26                       1.000000
X_15_11                       1.000000
X_16_21                       1.000000
X_17_8                        1.000000
X_18_24                       1.000000
X_19_8                        1.000000
X_20_16                       1.000000
X_21_15                       1.000000
X_22_5                        1.000000
X_23_9                        1.000000
X_24_4                        1.000000
X_25_14                       1.000000
X_26_3                        1.000000
X_27_5                        1.000000
X_28_3                        1.000000
X_29_11                       1.000000
X_30_19                       1.000000
X_31_16                       1.000000
X_32_24                       1.000000
X_33_12                       1.000000
X_34_22                       1.000000
X_35_27                       1.000000
X_36_1                        1.000000
X_37_19                       1.000000
X_38_4                        1.000000
X_39_17                       1.000000
X_40_11                       1.000000
X_41_27                       1.000000
X_42_30                       1.000000
X_43_13                       1.000000
X_44_18                       1.000000
X_45_25                       1.000000
X_46_2                        1.000000
X_47_19                       1.000000
X_48_25                       1.000000
X_49_13                       1.000000
X_50_13                       1.000000
X_51_11                       1.000000
X_52_23                       1.000000
X_53_19                       1.000000
X_54_1                        1.000000
X_55_23                       1.000000
X_56_4                        1.000000
X_57_21                       1.000000
X_58_23                       1.000000
X_59_30                       1.000000
X_60_13                       1.000000
X_61_19                       1.000000
X_62_22                       1.000000
X_63_11                       1.000000
X_64_23                       1.000000
X_65_3                        1.000000
X_66_6                        1.000000
X_67_16                       1.000000
X_68_20                       1.000000
X_69_15                       1.000000
X_70_3                        1.000000
X_71_20                       1.000000
X_72_22                       1.000000
X_73_26                       1.000000
X_74_21                       1.000000
X_75_30                       1.000000
X_76_12                       1.000000
X_77_24                       1.000000
X_78_13                       1.000000
X_79_4                        1.000000
X_80_27                       1.000000
X_81_21                       1.000000
X_82_5                        1.000000
X_83_14                       1.000000
X_84_4                        1.000000
X_85_7                        1.000000
X_86_7                        1.000000
X_87_5                        1.000000
X_88_6                        1.000000
X_89_6                        1.000000
X_90_29                       1.000000
X_91_1                        1.000000
X_92_13                       1.000000
X_93_10                       1.000000
X_94_24                       1.000000
X_95_19                       1.000000
X_96_28                       1.000000
X_97_19                       1.000000
X_98_28                       1.000000
X_99_7                        1.000000
X_100_24                      1.000000
X_101_6                       1.000000
X_102_25                      1.000000
X_103_29                      1.000000
X_104_20                      1.000000
X_105_23                      1.000000
X_106_23                      1.000000
X_107_16                      1.000000
X_108_26                      1.000000
X_109_15                      1.000000
X_110_7                       1.000000
X_111_28                      1.000000
X_112_29                      1.000000
X_113_23                      1.000000
X_114_13                      1.000000
X_115_19                      1.000000
X_116_15                      1.000000
X_117_22                      1.000000
X_118_1                       1.000000
X_119_9                       1.000000
X_120_16                      1.000000
X_121_6                       1.000000
X_122_17                      1.000000
X_123_7                       1.000000
X_124_22                      1.000000
X_125_6                       1.000000
X_126_23                      1.000000
X_127_14                      1.000000
X_128_1                       1.000000
X_129_2                       1.000000
X_130_18                      1.000000
X_131_12                      1.000000
X_132_22                      1.000000
X_133_5                       1.000000
X_134_10                      1.000000
X_135_7                       1.000000
X_136_17                      1.000000
X_137_18                      1.000000
X_138_5                       1.000000
X_139_26                      1.000000
X_140_16                      1.000000
X_141_18                      1.000000
X_142_11                      1.000000
X_143_23                      1.000000
X_144_5                       1.000000
X_145_25                      1.000000
X_146_12                      1.000000
X_147_8                       1.000000
X_148_12                      1.000000
X_149_18                      1.000000
X_150_20                      1.000000
X_151_14                      1.000000
X_152_24                      1.000000
X_153_5                       1.000000
X_154_18                      1.000000
X_155_4                       1.000000
X_156_17                      1.000000
X_157_12                      1.000000
X_158_25                      1.000000
X_159_21                      1.000000
X_160_10                      1.000000
X_161_3                       1.000000
X_162_18                      1.000000
X_163_22                      1.000000
X_164_25                      1.000000
X_165_11                      1.000000
X_166_29                      1.000000
X_167_6                       1.000000
X_168_2                       1.000000
X_169_2                       1.000000
X_170_14                      1.000000
X_171_3                       1.000000
X_172_23                      1.000000
X_173_29                      1.000000
X_174_11                      1.000000
X_175_28                      1.000000
X_176_14                      1.000000
X_177_1                       1.000000
X_178_24                      1.000000
X_179_26                      1.000000
X_180_13                      1.000000
X_181_26                      1.000000
X_182_18                      1.000000
X_183_28                      1.000000
X_184_1                       1.000000
X_185_25                      1.000000
X_186_15                      1.000000
X_187_19                      1.000000
X_188_16                      1.000000
X_189_10                      1.000000
X_190_17                      1.000000
X_191_5                       1.000000
X_192_27                      1.000000
X_193_27                      1.000000
X_194_2                       1.000000
X_195_25                      1.000000
X_196_13                      1.000000
X_197_26                      1.000000
X_198_10                      1.000000
X_199_19                      1.000000
X_200_26                      1.000000
X_201_25                      1.000000
X_202_28                      1.000000
X_203_30                      1.000000
X_204_30                      1.000000
X_205_24                      1.000000
X_206_2                       1.000000
X_207_28                      1.000000
X_208_20                      1.000000
X_209_25                      1.000000
X_210_24                      1.000000
X_211_18                      1.000000
X_212_5                       1.000000
X_213_30                      1.000000
X_214_23                      1.000000
X_215_17                      1.000000
X_216_2                       1.000000
X_217_4                       1.000000
X_218_8                       1.000000
X_219_3                       1.000000
X_220_24                      1.000000
X_221_7                       1.000000
X_222_8                       1.000000
X_223_7                       1.000000
X_224_6                       1.000000
X_225_17                      1.000000
X_226_10                      1.000000
X_227_1                       1.000000
X_228_23                      1.000000
X_229_14                      1.000000
X_230_13                      1.000000
X_231_9                       1.000000
X_232_24                      1.000000
X_233_18                      1.000000
X_234_17                      1.000000
X_235_7                       1.000000
X_236_15                      1.000000
X_237_23                      1.000000
X_238_12                      1.000000
X_239_1                       1.000000
X_240_2                       1.000000
X_241_30                      1.000000
X_242_20                      1.000000
X_243_7                       1.000000
X_244_28                      1.000000
X_245_27                      1.000000
X_246_7                       1.000000
X_247_25                      1.000000
X_248_24                      1.000000
X_249_29                      1.000000
X_250_10                      1.000000
X_251_9                       1.000000
X_252_8                       1.000000
X_253_30                      1.000000
X_254_4                       1.000000
X_255_30                      1.000000
X_256_5                       1.000000
X_257_3                       1.000000
X_258_20                      1.000000
X_259_11                      1.000000
X_260_7                       1.000000
X_261_26                      1.000000
X_262_4                       1.000000
X_263_10                      1.000000
X_264_2                       1.000000
X_265_24                      1.000000
X_266_6                       1.000000
X_267_19                      1.000000
X_268_17                      1.000000
X_269_20                      1.000000
X_270_14                      1.000000
X_271_8                       1.000000
X_272_25                      1.000000
X_273_13                      1.000000
X_274_20                      1.000000
X_275_3                       1.000000
X_276_9                       1.000000
X_277_15                      1.000000
X_278_23                      1.000000
X_279_28                      1.000000
X_280_11                      1.000000
X_281_7                       1.000000
X_282_21                      1.000000
X_283_25                      1.000000
X_284_2                       1.000000
X_285_2                       1.000000
X_286_7                       1.000000
X_287_5                       1.000000
X_288_25                      1.000000
X_289_27                      1.000000
X_290_16                      1.000000
X_291_7                       1.000000
X_292_2                       1.000000
X_293_9                       1.000000
X_294_9                       1.000000
X_295_18                      1.000000
X_296_10                      1.000000
X_297_3                       1.000000
X_298_30                      1.000000
X_299_23                      1.000000
X_300_30                      1.000000
X_301_28                      1.000000
X_302_23                      1.000000
X_303_29                      1.000000
X_304_13                      1.000000
X_305_6                       1.000000
X_306_29                      1.000000
X_307_30                      1.000000
X_308_13                      1.000000
X_309_30                      1.000000
X_310_27                      1.000000
X_311_9                       1.000000
X_312_25                      1.000000
X_313_27                      1.000000
X_314_29                      1.000000
X_315_15                      1.000000
X_316_2                       1.000000
X_317_27                      1.000000
X_318_26                      1.000000
X_319_12                      1.000000
X_320_23                      1.000000
X_321_15                      1.000000
X_322_1                       1.000000
X_323_16                      1.000000
X_324_26                      1.000000
X_325_16                      1.000000
X_326_22                      1.000000
X_327_8                       1.000000
X_328_14                      1.000000
X_329_24                      1.000000
X_330_3                       1.000000
X_331_17                      1.000000
X_332_7                       1.000000
X_333_3                       1.000000
X_334_2                       1.000000
X_335_16                      1.000000
X_336_30                      1.000000
X_337_26                      1.000000
X_338_23                      1.000000
X_339_28                      1.000000
X_340_3                       1.000000
X_341_29                      1.000000
X_342_15                      1.000000
X_343_22                      1.000000
X_344_12                      1.000000
X_345_19                      1.000000
X_346_9                       1.000000
X_347_22                      1.000000
X_348_8                       1.000000
X_349_26                      1.000000
X_350_24                      1.000000
X_351_27                      1.000000
X_352_10                      1.000000
X_353_21                      1.000000
X_354_2                       1.000000
X_355_20                      1.000000
X_356_24                      1.000000
X_357_20                      1.000000
X_358_16                      1.000000
X_359_24                      1.000000
X_360_28                      1.000000
X_361_5                       1.000000
X_362_5                       1.000000
X_363_14                      1.000000
X_364_9                       1.000000
X_365_24                      1.000000
X_366_9                       1.000000
X_367_27                      1.000000
X_368_23                      1.000000
X_369_24                      1.000000
X_370_14                      1.000000
X_371_15                      1.000000
X_372_9                       1.000000
X_373_15                      1.000000
X_374_10                      1.000000
X_375_7                       1.000000
X_376_18                      1.000000
X_377_4                       1.000000
X_378_3                       1.000000
X_379_21                      1.000000
X_380_26                      1.000000
X_381_21                      1.000000
X_382_29                      1.000000
X_383_12                      1.000000
X_384_11                      1.000000
X_385_1                       1.000000
X_386_2                       1.000000
X_387_2                       1.000000
X_388_16                      1.000000
X_389_30                      1.000000
X_390_9                       1.000000
X_391_17                      1.000000
X_392_8                       1.000000
X_393_8                       1.000000
X_394_3                       1.000000
X_395_7                       1.000000
X_396_22                      1.000000
X_397_12                      1.000000
X_398_4                       1.000000
X_399_28                      1.000000
X_400_27                      1.000000
X_401_3                       1.000000
X_402_14                      1.000000
X_403_9                       1.000000
X_404_11                      1.000000
X_405_8                       1.000000
X_406_3                       1.000000
X_407_5                       1.000000
X_408_28                      1.000000
X_409_5                       1.000000
X_410_11                      1.000000
X_411_7                       1.000000
X_412_13                      1.000000
X_413_26                      1.000000
X_414_12                      1.000000
X_415_20                      1.000000
X_416_25                      1.000000
X_417_4                       1.000000
X_418_12                      1.000000
X_419_16                      1.000000
X_420_25                      1.000000
X_421_7                       1.000000
X_422_28                      1.000000
X_423_7                       1.000000
X_424_26                      1.000000
X_425_2                       1.000000
X_426_6                       1.000000
X_427_3                       1.000000
X_428_19                      1.000000
X_429_5                       1.000000
X_430_4                       1.000000
X_431_29                      1.000000
X_432_27                      1.000000
X_433_24                      1.000000
X_434_16                      1.000000
X_435_1                       1.000000
X_436_3                       1.000000
X_437_9                       1.000000
X_438_21                      1.000000
X_439_6                       1.000000
X_440_2                       1.000000
X_441_27                      1.000000
X_442_15                      1.000000
X_443_2                       1.000000
X_444_16                      1.000000
X_445_4                       1.000000
X_446_18                      1.000000
X_447_5                       1.000000
X_448_24                      1.000000
X_449_21                      1.000000
X_450_29                      1.000000
X_451_15                      1.000000
X_452_10                      1.000000
X_453_11                      1.000000
X_454_20                      1.000000
X_455_5                       1.000000
X_456_19                      1.000000
X_457_11                      1.000000
X_458_12                      1.000000
X_459_16                      1.000000
X_460_16                      1.000000
X_461_21                      1.000000
X_462_15                      1.000000
X_463_29                      1.000000
X_464_27                      1.000000
X_465_21                      1.000000
X_466_19                      1.000000
X_467_21                      1.000000
X_468_2                       1.000000
X_469_7                       1.000000
X_470_16                      1.000000
X_471_26                      1.000000
X_472_3                       1.000000
X_473_9                       1.000000
X_474_25                      1.000000
X_475_4                       1.000000
X_476_11                      1.000000
X_477_6                       1.000000
X_478_6                       1.000000
X_479_3                       1.000000
X_480_15                      1.000000
X_481_18                      1.000000
X_482_7                       1.000000
X_483_8                       1.000000
X_484_8                       1.000000
X_485_26                      1.000000
X_486_14                      1.000000
X_487_11                      1.000000
X_488_26                      1.000000
X_489_13                      1.000000
X_490_1                       1.000000
X_491_17                      1.000000
X_492_30                      1.000000
X_493_28                      1.000000
X_494_10                      1.000000
X_495_12                      1.000000
X_496_3                       1.000000
X_497_4                       1.000000
X_498_17                      1.000000
X_499_27                      1.000000
X_500_8                       1.000000
All other variables in the range 1-15001 are 0.
